0 3830
6 3809
10 3774
12 3747
14 3703
17 3656
23 3652
25 3640
30 3607
38 3569
43 3542
48 3534
82 3531
83 3511
84 3507
92 3498
94 3483
100 3468
116 3455
137 3450
139 3449
140 3441
151 3420
190 3409
227 3387
234 3367
252 3358
254 3302
262 3294
321 3291
339 3290
346 3283
348 3282
389 3280
438 3278
477 3267
536 3250
543 3248
615 3245
711 3242
826 3228
843 3217
853 3205
860 3197
899 3194
914 3187
920 3185
1071 3183
1099 3180
1151 3177
1198 3170
1223 3163
1282 3161
1283 3159
1457 3158
1521 3146
1565 3144
1584 3142
1600 3138
1856 3125
1880 3116
2044 3105
2182 3102
2281 3093
2319 3089
2346 3087
2609 3083
19719 3078
19898 3076
19929 3074
20836 3069
20859 3068
21039 3067
36598 3066
38046 3065
38463 3063
846777 3060
847096 3055
847288 3048
848162 3046
